c Random Network
p max    10      20
n         1  s
n        10  t
a       5       4      16
a       5       2      50
a       5       8       6
a       7       2      30
a      10       4      40
a       2       3      18
a       3       1      19
a       3       6       7
a       3       5      36
a       1       3      29
a       4       7      32
a       1       2      29
a       8       3      15
a       8       5      14
a       4       8      27
a       7       9      23
a       7       1      17
a       4       5       1
a       7       4      42
a       5       3      16
